p cnf 186 398
-1 -33 0 
1 2 33 0 
-2 -33 0 
-3 -34 0 
3 -33 34 0 
-4 -35 0 
4 -34 35 0 
-5 -36 0 
5 -35 36 0 
-6 -37 0 
6 -36 37 0 
-7 -38 0 
7 -37 38 0 
-8 -39 0 
8 -38 39 0 
-9 -40 0 
9 -39 40 0 
-10 -41 0 
10 -40 41 0 
-11 -42 0 
11 -41 42 0 
-12 -43 0 
12 -42 43 0 
-13 -44 0 
13 -43 44 0 
-14 -45 0 
14 -44 45 0 
-15 -46 0 
15 -45 46 0 
-16 -47 0 
16 -46 47 0 
-17 -48 0 
17 -47 48 0 
-18 -49 0 
18 -48 49 0 
-19 -50 0 
19 -49 50 0 
-20 -51 0 
20 -50 51 0 
-21 -52 0 
21 -51 52 0 
-22 -53 0 
22 -52 53 0 
-23 -54 0 
23 -53 54 0 
-24 -55 0 
24 -54 55 0 
-25 -56 0 
25 -55 56 0 
-26 -57 0 
26 -56 57 0 
-27 -58 0 
27 -57 58 0 
-28 -59 0 
28 -58 59 0 
-29 -60 0 
29 -59 60 0 
-30 -61 0 
30 -60 61 0 
-31 -62 0 
31 -61 62 0 
32 -62 0 
33 -34 0 
34 -35 0 
35 -36 0 
36 -37 0 
37 -38 0 
38 -39 0 
39 -40 0 
40 -41 0 
41 -42 0 
42 -43 0 
43 -44 0 
44 -45 0 
45 -46 0 
46 -47 0 
47 -48 0 
48 -49 0 
49 -50 0 
50 -51 0 
51 -52 0 
52 -53 0 
53 -54 0 
54 -55 0 
55 -56 0 
56 -57 0 
57 -58 0 
58 -59 0 
59 -60 0 
60 -61 0 
61 -62 0 
-63 -125 -124 0 
-63 125 124 0 
63 -125 124 0 
63 125 -124 0 
-64 -124 0 
-64 -126 -123 0 
-64 126 123 0 
64 -123 124 0 
64 -126 123 0 
64 126 -123 0 
-65 -123 0 
-65 -127 -122 0 
-65 127 122 0 
65 -122 123 0 
65 -127 122 0 
65 127 -122 0 
-66 -122 0 
-66 -128 -121 0 
-66 128 121 0 
66 -121 122 0 
66 -128 121 0 
66 128 -121 0 
-67 -121 0 
-67 -129 -120 0 
-67 129 120 0 
67 -120 121 0 
67 -129 120 0 
67 129 -120 0 
-68 -120 0 
-68 -130 -119 0 
-68 130 119 0 
68 -119 120 0 
68 -130 119 0 
68 130 -119 0 
-69 -119 0 
-69 -131 -118 0 
-69 131 118 0 
69 -118 119 0 
69 -131 118 0 
69 131 -118 0 
-70 -118 0 
-70 -132 -117 0 
-70 132 117 0 
70 -117 118 0 
70 -132 117 0 
70 132 -117 0 
-71 -117 0 
-71 -133 -116 0 
-71 133 116 0 
71 -116 117 0 
71 -133 116 0 
71 133 -116 0 
-72 -116 0 
-72 -134 -115 0 
-72 134 115 0 
72 -115 116 0 
72 -134 115 0 
72 134 -115 0 
-73 -115 0 
-73 -135 -114 0 
-73 135 114 0 
73 -114 115 0 
73 -135 114 0 
73 135 -114 0 
-74 -114 0 
-74 -136 -113 0 
-74 136 113 0 
74 -113 114 0 
74 -136 113 0 
74 136 -113 0 
-75 -113 0 
-75 -137 -112 0 
-75 137 112 0 
75 -112 113 0 
75 -137 112 0 
75 137 -112 0 
-76 -112 0 
-76 -138 -111 0 
-76 138 111 0 
76 -111 112 0 
76 -138 111 0 
76 138 -111 0 
-77 -111 0 
-77 -139 -110 0 
-77 139 110 0 
77 -110 111 0 
77 -139 110 0 
77 139 -110 0 
-78 -110 0 
-78 -140 -109 0 
-78 140 109 0 
78 -109 110 0 
78 -140 109 0 
78 140 -109 0 
-79 -109 0 
-79 -141 -108 0 
-79 141 108 0 
79 -108 109 0 
79 -141 108 0 
79 141 -108 0 
-80 -108 0 
-80 -142 -107 0 
-80 142 107 0 
80 -107 108 0 
80 -142 107 0 
80 142 -107 0 
-81 -107 0 
-81 -143 -106 0 
-81 143 106 0 
81 -106 107 0 
81 -143 106 0 
81 143 -106 0 
-82 -106 0 
-82 -144 -105 0 
-82 144 105 0 
82 -105 106 0 
82 -144 105 0 
82 144 -105 0 
-83 -105 0 
-83 -145 -104 0 
-83 145 104 0 
83 -104 105 0 
83 -145 104 0 
83 145 -104 0 
-84 -104 0 
-84 -146 -103 0 
-84 146 103 0 
84 -103 104 0 
84 -146 103 0 
84 146 -103 0 
-85 -103 0 
-85 -147 -102 0 
-85 147 102 0 
85 -102 103 0 
85 -147 102 0 
85 147 -102 0 
-86 -102 0 
-86 -148 -101 0 
-86 148 101 0 
86 -101 102 0 
86 -148 101 0 
86 148 -101 0 
-87 -101 0 
-87 -149 -100 0 
-87 149 100 0 
87 -100 101 0 
87 -149 100 0 
87 149 -100 0 
-88 -100 0 
-88 -150 -99 0 
-88 150 99 0 
88 -99 100 0 
88 -150 99 0 
88 150 -99 0 
-89 -99 0 
-89 -151 -98 0 
-89 151 98 0 
89 -98 99 0 
89 -151 98 0 
89 151 -98 0 
-90 -98 0 
-90 -152 -97 0 
-90 152 97 0 
90 -97 98 0 
90 -152 97 0 
90 152 -97 0 
-91 -97 0 
-91 -153 -96 0 
-91 153 96 0 
91 -96 97 0 
91 -153 96 0 
91 153 -96 0 
-92 -96 0 
-92 -154 95 0 
-92 154 -95 0 
92 95 96 0 
92 -154 -95 0 
92 154 95 0 
-93 -155 0 
-93 -94 95 0 
93 -95 0 
93 94 155 0 
-94 -155 0 
-94 -185 186 0 
94 -95 0 
94 -186 0 
-95 -96 0 
-95 -156 0 
95 155 156 0 
96 -97 0 
97 -98 0 
98 -99 0 
99 -100 0 
100 -101 0 
101 -102 0 
102 -103 0 
103 -104 0 
104 -105 0 
105 -106 0 
106 -107 0 
107 -108 0 
108 -109 0 
109 -110 0 
110 -111 0 
111 -112 0 
112 -113 0 
113 -114 0 
114 -115 0 
115 -116 0 
116 -117 0 
117 -118 0 
118 -119 0 
119 -120 0 
120 -121 0 
121 -122 0 
122 -123 0 
123 -124 0 
125 186 0 
-126 -157 0 
126 127 157 0 
-127 -157 0 
-128 -158 0 
128 -157 158 0 
-129 -159 0 
129 -158 159 0 
-130 -160 0 
130 -159 160 0 
-131 -161 0 
131 -160 161 0 
-132 -162 0 
132 -161 162 0 
-133 -163 0 
133 -162 163 0 
-134 -164 0 
134 -163 164 0 
-135 -165 0 
135 -164 165 0 
-136 -166 0 
136 -165 166 0 
-137 -167 0 
137 -166 167 0 
-138 -168 0 
138 -167 168 0 
-139 -169 0 
139 -168 169 0 
-140 -170 0 
140 -169 170 0 
-141 -171 0 
141 -170 171 0 
-142 -172 0 
142 -171 172 0 
-143 -173 0 
143 -172 173 0 
-144 -174 0 
144 -173 174 0 
-145 -175 0 
145 -174 175 0 
-146 -176 0 
146 -175 176 0 
-147 -177 0 
147 -176 177 0 
-148 -178 0 
148 -177 178 0 
-149 -179 0 
149 -178 179 0 
-150 -180 0 
150 -179 180 0 
-151 -181 0 
151 -180 181 0 
-152 -182 0 
152 -181 182 0 
-153 -183 0 
153 -182 183 0 
-154 -184 0 
154 -183 184 0 
-155 -156 0 
-156 -185 0 
156 -184 185 0 
157 -158 0 
158 -159 0 
159 -160 0 
160 -161 0 
161 -162 0 
162 -163 0 
163 -164 0 
164 -165 0 
165 -166 0 
166 -167 0 
167 -168 0 
168 -169 0 
169 -170 0 
170 -171 0 
171 -172 0 
172 -173 0 
173 -174 0 
174 -175 0 
175 -176 0 
176 -177 0 
177 -178 0 
178 -179 0 
179 -180 0 
180 -181 0 
181 -182 0 
182 -183 0 
183 -184 0 
184 -185 0 
185 -186 0 
